(set-logic QF_SLIA)
(declare-const result String)
(declare-const attack String)
(declare-const prefix RegLan)
(declare-const infix RegLan)
(declare-const postfix RegLan)
(declare-const postfixs String)

(assert (str.in_re attack (re.++ prefix ((_ re.loop 5000 5000) infix) postfix)))
(assert (= prefix 
     (re.++  (re.++  (str.to_re "\u{3b}") (re.++ (re.*  (str.to_re "\u{20}") ) (re.++  (str.to_re "\u{56}") (re.++  (str.to_re "\u{53}") (re.range "\u{36}" "\u{39}"))))) (re.+ (re.range "\u{30}" "\u{39}") ))
))
(assert (= infix 
         (re.++ (re.+ (re.range "\u{30}" "\u{39}") ) (re.++  (str.to_re "\u{26}") (re.++  (re.++ (re.+ (re.range "\u{30}" "\u{39}") ) (re.++  (re.+  (re.union  (str.to_re "\u{5c}\u{2f}")  (str.to_re "\u{3b}")) ))) (re.++  (str.to_re "\u{26}") (re.++ (re.+  (re.union  (str.to_re "\u{5c}\u{2f}")  (str.to_re "\u{3b}")) ) (re.++  (str.to_re "\u{26}") (re.+ re.allchar )))))))
))
(assert (= postfix 
         (re.++  (str.to_re "\u{25ce}") (re.++  (str.to_re "\u{41}") (re.++  (str.to_re "\u{3b}") (re.++  (str.to_re "\u{25ce}") (re.++  (str.to_re "\u{41}") (re.++  (str.to_re "\u{3b}")  (str.to_re "\u{25ce}")))))))
))
(assert (str.in_re postfixs postfix))
(assert (>= (str.len postfixs) 1))
(assert (= result (str.++ attack postfixs)))
(check-sat)
(get-model)